Running HiGHS 1.2.2 [date: 2022-05-24, git hash: n/a]
Copyright (c) 2022 ERGO-Code under MIT licence terms
LP   flexModel3 has 911040 rows; 718320 cols; 2006040 nonzeros
Presolving model
Problem status detected on presolve: Infeasible
Model   status      : Infeasible
Objective value     :  0.0000000000e+00
HiGHS run time      :          0.61
